JulietBench/Juliet_Based_Patch_Bench/linux/CWE-189-Numeric-Errors/CVE_2014_8369_3d32e4dbe71374a6780eaf51d719d76f9a9bf22f/Resultkvm_pin_pages_SnippetNEQ.smt2
; benchmark generated from python API
(set-info :status unknown)
(declare-fun rdi () (_ BitVec 64))
(declare-fun rsi () (_ BitVec 64))
(declare-fun R () (_ BitVec 64))
(assert
 (let ((?x17 (bvadd rsi rdi)))
 (let (($x20 (and (distinct R ?x17) true)))
 (let ((?x9 ((_ extract 63 13) rsi)))
 (let ((?x10 (concat (_ bv0 13) ?x9)))
 (let ((?x13 (bvadd rdi ?x10)))
 (let (($x35 (and (distinct R ?x13) true)))
 (let (($x34 (and $x35 $x20)))
 (let (($x28 (= R ?x17)))
 (let (($x19 (= R ?x13)))
 (let (($x26 (and $x19 $x28)))
 (let (($x33 (or $x26 $x34)))
 (not $x33)))))))))))))
(check-sat)
